NAME: test110
TYPE: TSP
DIMENSION: 20
EDGE_WEIGHT_TYPE: EUC_2D
NODE_COORD_SECTION
1 84.2747865502439 50.88105448687046
2 93.67322559128111 27.926037810316352
3 76.20847470774511 10.878757666066019
4 94.47569896035142 5.701298242871489
5 16.996110653890096 68.13983189961739
6 1.6857841099431337 56.07985886429427
7 49.47967031742054 54.75721361542405
8 20.634886872555246 13.341906347199384
9 30.305864473375 84.39184428114311
10 76.5852940101615 13.788693481181157
11 42.001252215996075 31.36036619806395
12 71.96601287901291 73.68681263927544
13 68.05580532904413 44.65392203262344
14 85.60158171746734 91.88726337613149
15 38.40828584296402 75.7007685171588
16 93.83022048161703 71.46794695841767
17 96.09139775786066 22.754000954231945
18 51.15062235737954 26.295463473139826
19 24.481807700144532 35.072016297660014
20 18.997787263479427 91.92512345717304
EOF
